1 1 -2 0
1 3 -1 0
1 4 5 0
1 -6 -5 0
1 6 7 0
1 -6 -8 0
1 2 -9 0
1 2 10 0
1 2 -6 0
1 2 3 0
1 -2 -11 0
1 12 -13 0
1 -12 9 0
1 -12 6 0
1 12 -4 0
1 -12 1 0
1 14 -15 0
1 -14 6 0
1 14 -3 0
1 -14 11 0
1 -14 -8 0
1 -8 6 0
1 8 -14 0
1 -8 11 0
1 8 -16 0
1 -17 18 0
1 17 -2 0
1 -17 -16 0
1 -17 12 0
1 -10 -5 0
1 10 19 0
1 -10 17 0
1 -10 -12 0
1 20 -5 0
1 -20 2 0
1 -20 7 0
1 20 21 0
1 20 -22 0
1 -20 12 0
1 -23 -5 0
1 -23 -20 0
1 21 5 0
1 -21 -10 0
1 21 24 0
1 -21 -17 0
1 21 25 0
1 -5 26 0
1 -5 10 0
1 5 27 0
1 -5 -28 0
1 5 -21 0
1 5 -17 0
1 5 -25 0
1 7 29 0
1 -7 9 0
1 -7 -23 0
1 7 -20 0
1 -18 -29 0
1 -18 23 0
1 -18 30 0
1 18 -11 0
1 18 -17 0
1 18 25 0
1 24 -31 0
1 -24 32 0
1 24 33 0
1 24 34 0
1 -31 5 0
1 -28 30 0
1 28 35 0
1 -26 -5 0
1 26 32 0
1 -26 21 0
1 -26 -34 0
1 34 -26 0
1 34 -23 0
1 34 -28 0
1 34 24 0
1 -33 -26 0
1 -33 23 0
1 33 20 0
1 -33 34 0
1 -35 -36 0
1 35 27 0
1 -35 24 0
1 -35 37 0
1 35 25 0
1 32 -24 0
1 -32 -20 0
1 -16 -19 0
1 -16 38 0
1 16 -14 0
1 16 39 0
1 -16 -40 0
1 -16 8 0
1 -19 -10 0
1 -19 38 0
1 19 14 0
1 19 -40 0
1 -22 -15 0
1 22 41 0
1 22 -38 0
1 22 42 0
1 22 -14 0
1 22 20 0
1 -22 40 0
1 22 -43 0
1 -22 8 0
1 -15 -40 0
1 15 -42 0
1 15 39 0
1 -15 43 0
1 -15 -44 0
1 -15 -8 0
1 38 -29 0
1 38 19 0
1 38 -30 0
1 38 -16 0
1 40 29 0
1 40 19 0
1 -41 15 0
1 -41 39 0
1 -41 22 0
1 39 19 0
1 -39 22 0
1 11 -9 0
1 -11 -42 0
1 -11 2 0
1 -11 -7 0
1 11 24 0
1 11 -40 0
1 -11 8 0
1 -11 12 0
1 -9 -31 0
1 9 38 0
1 9 -45 0
1 -9 11 0
1 -9 -43 0
1 -9 -8 0
1 -30 -45 0
1 -30 -46 0
1 30 -7 0
1 -30 -28 0
1 -30 -43 0
1 -30 -44 0
1 -29 13 0
1 -29 26 0
1 -29 7 0
1 29 -40 0
1 -29 -43 0
1 45 36 0
1 45 11 0
1 45 44 0
1 -45 -37 0
1 -44 -29 0
1 44 15 0
1 -44 45 0
1 42 9 0
1 42 15 0
1 42 -43 0
1 43 -29 0
1 -43 15 0
1 43 -42 0
1 43 -30 0
1 -43 11 0
1 27 18 0
1 -27 -47 0
1 27 46 0
1 27 -35 0
1 -27 44 0
1 27 -25 0
1 25 -18 0
1 25 13 0
1 25 -5 0
1 -25 -47 0
1 25 -27 0
1 25 -46 0
1 36 32 0
1 36 -47 0
1 -36 35 0
1 36 -48 0
1 37 -32 0
1 37 -45 0
1 -37 35 0
1 -46 27 0
1 46 -30 0
1 -13 36 0
1 13 30 0
1 13 -12 0
1 -13 -25 0
1 47 -36 0
1 47 30 0
1 -47 37 0
1 -48 -27 0
